c 
c MolecularSimulation 0.9.3
c Simulation written: Jan 13 2012 -- 15:17:57
c Test: Distribution
c Input: ./data/testCNF/SWEEP_R1_K3_N20_M16_S000.cnf
c 
s SATISFIABLE
v 1 10 11 12 -13 14 15 -16 -17 20 0
c algorithmTime:  15
c solutionMemory: 64583
c mixCount:       45
c extractCount:   0
c appendCount:    444527
c splitCount:     45
c spliceCount:    199281
c purifyCount:    15
c 
